Bruniera/ragionamento automatico/progetto/benchmark/asp/mid12.lp
start(0).
limit(6).
n(14).
strada(0,1,10).
strada(0,3,5).
strada(0,5,5).
strada(0,8,15).
strada(0,10,5).
strada(0,12,10).
strada(0,13,10).
strada(1,0,1).
strada(1,2,1).
strada(1,3,10).
strada(1,4,13).
strada(1,7,15).
strada(1,8,18).
strada(1,10,6).
strada(1,11,0).
strada(1,12,8).
strada(2,0,20).
strada(2,1,19).
strada(2,3,6).
strada(2,4,13).
strada(2,6,9).
strada(2,8,6).
strada(2,10,6).
strada(2,11,11).
strada(3,1,4).
strada(3,2,8).
strada(3,6,11).
strada(3,7,6).
strada(3,9,16).
strada(3,11,7).
strada(4,1,4).
strada(4,2,17).
strada(4,6,3).
strada(4,7,5).
strada(4,8,20).
strada(4,9,9).
strada(4,10,18).
strada(5,1,20).
strada(5,3,13).
strada(5,8,15).
strada(5,11,13).
strada(5,12,16).
strada(5,13,9).
strada(6,10,16).
strada(6,12,20).
strada(6,13,4).
strada(7,0,11).
strada(7,4,8).
strada(7,6,15).
strada(7,8,15).
strada(7,9,2).
strada(7,12,15).
strada(8,1,3).
strada(8,4,13).
strada(8,6,9).
strada(8,7,11).
strada(8,10,6).
strada(8,11,10).
strada(8,13,19).
strada(9,1,14).
strada(9,2,3).
strada(9,3,14).
strada(9,5,3).
strada(9,7,10).
strada(9,10,3).
strada(9,11,9).
strada(10,0,12).
strada(10,1,19).
strada(10,3,20).
strada(10,4,20).
strada(10,6,12).
strada(10,9,2).
strada(10,11,19).
strada(11,5,16).
strada(11,8,15).
strada(11,9,8).
strada(11,10,18).
strada(12,3,1).
strada(12,5,9).
strada(12,6,2).
strada(12,7,9).
strada(12,8,16).
strada(12,13,9).
strada(13,0,7).
strada(13,3,18).
strada(13,4,10).
strada(13,7,1).
strada(13,8,20).
