Bruniera/ragionamento automatico/progetto/benchmark/minizinc/mid12.dzn
start = 1;
limit = 6;
n = 14;
m=[|-1,10,-1,5,-1,5,-1,-1,15,-1,5,-1,10,10,
|1,-1,1,10,13,-1,-1,15,18,-1,6,0,8,-1,
|20,19,-1,6,13,-1,9,-1,6,-1,6,11,-1,-1,
|-1,4,8,-1,-1,-1,11,6,-1,16,-1,7,-1,-1,
|-1,4,17,-1,-1,-1,3,5,20,9,18,-1,-1,-1,
|-1,20,-1,13,-1,-1,-1,-1,15,-1,-1,13,16,9,
|-1,-1,-1,-1,-1,-1,-1,-1,-1,-1,16,-1,20,4,
|11,-1,-1,-1,8,-1,15,-1,15,2,-1,-1,15,-1,
|-1,3,-1,-1,13,-1,9,11,-1,-1,6,10,-1,19,
|-1,14,3,14,-1,3,-1,10,-1,-1,3,9,-1,-1,
|12,19,-1,20,20,-1,12,-1,-1,2,-1,19,-1,-1,
|-1,-1,-1,-1,-1,16,-1,-1,15,8,18,-1,-1,-1,
|-1,-1,-1,1,-1,9,2,9,16,-1,-1,-1,-1,9,
|7,-1,-1,18,10,-1,-1,1,20,-1,-1,-1,-1,-1,
|]
;